
length = 20;
width = 10;

ntypes = 3;
number = [2,2,1];
config = [{1},{2},{3}];

nshapes = 3;
shape = [{1,2},{3,4,5},{6,7,8}];

nroff = 8;
rectoff = [| 0,1,2,1
           | 2,0,3,3
           | 0,1,1,2
           | 1,0,4,4
           | 5,0,2,2
           | 2,0,1,1
           | 1,1,3,3
           | 0,4,5,1
 |]; 


mist =   array1d(LENGTH,[0,0,0,3,3,3,6,6,6,6,2,2,2,4,4,4,0,0,5,5]);
arrow  = array1d(WIDTH,[0,1,2,4,10,12,7,3,1,0]);
price = [ 5, 6, 7 ];
budget = 40;

stage = D;
